(declare-const income Real)
(declare-const p6_00 Real)
(declare-const fee_bl Real)
(declare-const p6_90 Real)
(declare-const p4_50 Real)
(declare-const p6_50 Real)
(declare-const p5_50 Real)
(declare-const p6_99 Real)
(declare-const p2_00 Real)
(assert (= p2_00 (* 0.02 (ite (> income 10000) 10000 income))))
(assert (= p4_50 (ite (> income 10000) (* 0.045 (- (ite (> income 50000) 50000 income) 10000)) 0)))
(assert (= p5_50 (ite (> income 50000) (* 0.055 (- (ite (> income 100000) 100000 income) 50000)) 0)))
(assert (= p6_00 (ite (> income 100000) (* 0.06 (- (ite (> income 200000) 200000 income) 100000)) 0)))
(assert (= p6_50 (ite (> income 200000) (* 0.065 (- (ite (> income 250000) 250000 income) 200000)) 0)))
(assert (= p6_90 (ite (> income 250000) (* 0.069 (- (ite (> income 500000) 500000 income) 250000)) 0)))
(assert (= p6_99 (ite (> income 500000) (* 0.0699 (- income 500000)) 0)))
(assert (= fee_bl (+ (+ (+ (+ (+ (+ p2_00 p4_50) p5_50) p6_00) p6_50) p6_90) p6_99)))